NAME : 10_3_3_2_(11).dat
COMMENT : Henke, Speranza, Wäscher, 2015
TYPE : MCVRP
DIMENSION : 11
EDGE_WEIGHT_TYPE : DISTANCE_MATRIX
CAPACITY : 1000
VEHICLES : 2
PRODUCT TYPES : 3
COMPARTMENTS : 3
NODE_COORD_SECTION
1 50 50
2 92.36 35.48
3 25.83 97.75
4 16.95 60.66
5 66.27 76.72
6 42.7 21.91
7 13.79 26.07
8 21.49 69.62
9 81.59 23.46
10 27.9 25.85
11 6.84 54.01
DEMAND_SECTION
1 0 0 0
2 175 49 0
3 27 0 40
4 78 16 0
5 0 97 118
6 109 65 0
7 54 0 78
8 16 20 0
9 139 0 34
10 36 58 0
11 43 101 0
DEPOT_SECTION
1
EOF